# ORCA input file
# -39.46113275
! wB97X-D3 def2-SVP Opt
* xyz 0 1
   C       -2.72190        -0.89730        -0.01400
   C       -1.61750        -1.72480        -0.00710
   C       -0.34190        -1.17200         0.01550
   C       -0.19390         0.20090         0.03350
   C       -1.29150         1.03480         0.02390
   C       -2.57330         0.49160        -0.00150
   O       -3.68310         1.25690        -0.01370
   H       -3.44710         2.19350        -0.00210
   H       -1.11500         2.09980         0.03410
   S        1.42800         0.95040         0.08480
   O        2.20710         0.37880         1.13640
   O        1.26690         2.36290         0.02470
   O        2.04710         0.46860        -1.31540
   H        2.57320        -0.32710        -1.19800
  Cl        1.05180        -2.17130         0.01670
   H       -1.73600        -2.79620        -0.02100
   H       -3.71850        -1.30800        -0.03110
*
