# ORCA input file
# -34.47012878
! wB97X-D3 def2-SVP Opt
* xyz 0 2
   C       -2.64460        -0.85090        -0.00090
   C       -1.65890        -1.81380         0.00120
   N       -0.38190        -1.45580         0.00550
   C       -0.06310        -0.21630         0.00940
   C       -0.91930         0.84560         0.00680
   C       -2.29240         0.51310         0.00190
   N       -3.22560         1.48480         0.00110
   H       -4.20360         1.25950        -0.00780
   H       -2.94730         2.44940        -0.00110
   H       -0.55630         1.85830         0.01030
   S        1.79200         0.17270        -0.00140
   O        2.12740        -0.42190        -1.26880
   O        1.78060         1.61140         0.05350
   O        2.18420        -0.51620         1.19880
   H       -1.87460        -2.87110        -0.00130
   H       -3.68390        -1.13960        -0.00540
*
