# ORCA input file
# -50.72278630
! wB97X-D3 def2-SVP Opt
* xyz 0 1
   C        2.33230         2.95760         0.28040
   H        3.35660         3.13230         0.59760
   H        2.18950         3.37510        -0.71350
   H        1.66640         3.46950         0.97080
   C        2.03540         1.45520         0.26030
   C        2.93560         0.73000        -0.74730
   H        3.93470         1.16580        -0.72710
   H        2.51160         0.87710        -1.74170
   C        3.05300        -0.76980        -0.44930
   N        1.78850        -1.44250        -0.41240
   C        0.98030        -1.81900         0.60190
   O        1.11380        -1.78600         1.79800
   C       -0.09880        -2.28900        -0.37360
   H       -1.05160        -1.77840        -0.27380
   H       -0.24810        -3.36510        -0.37970
   C        0.83750        -1.74810        -1.46550
   H        0.46170        -0.86000        -1.97680
   H        1.20840        -2.47620        -2.19120
   H        3.51270        -0.91500         0.53240
   H        3.68540        -1.24400        -1.20940
   O        0.69830         1.19600        -0.12850
   C       -0.25610         1.29660         0.90480
   C       -1.58600         0.80680         0.40110
   C       -2.43770         0.09450         1.23570
   C       -3.66160        -0.35210         0.76850
   C       -4.04190        -0.09960        -0.53890
   C       -3.19480         0.60630        -1.37650
   C       -1.97530         1.06150        -0.90750
   H       -1.30810         1.61020        -1.55410
   H       -3.48650         0.80470        -2.39770
   H       -4.99460        -0.45380        -0.90420
   H       -4.31690        -0.90560         1.42500
   H       -2.13520        -0.11830         2.25050
   H        0.06040         0.69830         1.77170
   H       -0.35930         2.34450         1.23650
   H        2.20690         1.03960         1.26640
*
