# ORCA input file
# -40.95396674
! wB97X-D3 def2-SVP Opt
* xyz 0 1
   C       -3.38570        -2.16370         0.00190
   H       -3.87400        -1.75370        -0.89010
   O       -2.00810        -1.88570         0.00230
   C       -1.73760        -0.50550        -0.00100
   C       -0.25830        -0.26050        -0.00070
   C        0.59840        -1.35470        -0.00040
   C        1.96740        -1.17020        -0.00030
   C        2.54320         0.09220        -0.00060
   C        1.70350         1.18250        -0.00060
   C        0.31730         1.01980        -0.00060
   N       -0.47130         2.22310        -0.00020
   O        0.11950         3.28250         0.00670
   O       -1.68220         2.12330        -0.00680
   H        2.09980         2.18660        -0.00060
   H        3.61520         0.20200        -0.00090
   F        2.76490        -2.24680        -0.00020
   H        0.18180        -2.34800        -0.00020
   H       -2.19140        -0.02830        -0.88520
   H       -2.19290        -0.02370         0.87990
   H       -3.48140        -3.24730         0.00340
   H       -3.87540        -1.75100         0.89180
*
