# ORCA input file
# -50.00856561
! wB97X-D3 def2-SVP Opt
* xyz 0 1
   C       -3.43470        -1.46150        -0.98630
   C       -4.03970        -0.12430        -0.67410
   N       -3.89310         0.59080         0.35690
   C       -3.03180         0.17270         1.43920
   C       -1.57400         0.17340         1.05520
   C       -1.02570         1.27710         0.41510
   C        0.30300         1.29520         0.03870
   C        1.12580         0.20050         0.30210
   C        0.58120        -0.90620         0.94980
   C       -0.75200        -0.91530         1.31210
   H       -1.15470        -1.78600         1.80950
   H        1.20020        -1.76300         1.15480
   N        2.47780         0.22870        -0.06640
   C        3.27240        -0.85750        -0.29290
   O        2.95480        -2.01960        -0.19800
   C        4.64040        -0.34610        -0.72130
   C        4.64000         1.11340        -0.28550
   H        5.00350         1.19870         0.73930
   H        5.24760         1.75210        -0.92320
   C        3.15710         1.48150        -0.34710
   H        2.88820         1.84680        -1.34660
   H        2.88050         2.23690         0.39160
   H        4.71100        -0.44520        -1.80670
   H        5.43180        -0.94430        -0.27460
   H        0.69030         2.16450        -0.46910
   H       -1.65580         2.12780         0.20220
   H       -3.19540         0.89470         2.24740
   H       -3.31370        -0.82240         1.80650
   O       -4.84690         0.33030        -1.64770
   H       -5.20230         1.18910        -1.37670
   H       -3.65880        -2.16440        -0.18550
   H       -3.83930        -1.83030        -1.92360
   H       -2.35260        -1.37000        -1.06170
*
