# ORCA input file
# -42.48089389
! wB97X-D3 def2-SVP Opt
* xyz 0 1
   C       -2.34880        -2.88170        -1.31420
   C       -1.73950        -1.65580        -0.72520
   C       -1.82220        -1.31800         0.55060
   C       -1.23980        -0.06880         1.16200
   N       -0.29250         0.60910         0.29040
   C       -0.87400         1.61530        -0.42620
   O       -0.35690         2.28170        -1.29180
   C       -2.31560         1.74380         0.04410
   C       -2.33660         0.99140         1.36650
   H       -3.30150         0.53870         1.58670
   H       -2.06550         1.65730         2.18690
   H       -2.59950         2.79140         0.12310
   H       -2.95950         1.27000        -0.69940
   C        1.03790         0.18060         0.18360
   C        1.40170        -1.09660         0.60820
   C        2.71920        -1.50910         0.52980
   C        3.69280        -0.66400         0.02790
   C        3.33480         0.60410        -0.39700
   C        2.02270         1.03000        -0.31860
   H        1.75550         2.01730        -0.65490
   H        4.08480         1.27430        -0.79030
   H        4.71980        -0.99140        -0.03320
   H        2.98240        -2.50290         0.86190
   H        0.65730        -1.78010         0.98510
   H       -0.75000        -0.31970         2.11040
   H       -2.36890        -1.93890         1.24870
   H       -1.18990        -1.03260        -1.41910
   H       -2.88650        -3.45440        -0.56270
   H       -3.03840        -2.61010        -2.11270
   H       -1.57390        -3.51070        -1.75120
*
