# ORCA input file
# -45.29957047
! wB97X-D3 def2-SVP Opt
* xyz 0 2
   C        3.50550         0.26550         0.00130
   C        2.91720        -0.97030         0.00150
   C        1.50300        -1.12350         0.00030
   C        0.94920        -2.39830        -0.00060
   O       -0.35540        -2.67540        -0.00190
   H        1.58200        -3.27370        -0.00030
   C        0.70220         0.06560        -0.00040
   C        1.34730         1.28660        -0.00070
   C        2.72750         1.42090        -0.00010
   H        3.16580         2.40480        -0.00060
   F        0.60660         2.42630        -0.00180
   N       -0.72600        -0.07280        -0.00010
   C       -1.37660         0.44090         1.20400
   H       -0.85920         0.03460         2.07670
   C       -2.84310        -0.01110         1.19240
   H       -3.35940         0.38180         2.07010
   N       -3.54870         0.42170         0.00090
   H       -0.82510        -1.79430        -0.00180
   H       -3.62160         1.43600         0.00040
   C       -2.84370        -0.01210        -1.19060
   H       -3.36130         0.37860        -2.06850
   C       -1.37790         0.44160        -1.20340
   H       -0.86060         0.03690        -2.07680
   H       -1.33650         1.54090        -1.25090
   H       -2.88710        -1.10540        -1.21800
   H       -2.88760        -1.10420         1.22160
   H       -1.33390         1.54010         1.25280
   H        3.52220        -1.86390         0.00270
   H        4.58120         0.35440         0.00220
*
