# ORCA input file
# -52.40534012
! wB97X-D3 def2-SVP Opt
* xyz 0 1
   C        1.65640         1.24640        -0.80090
   C        0.39590         1.63400        -0.39550
   C       -0.46570         0.71400         0.19760
   C       -0.04670        -0.59750         0.37430
   C        1.22110        -0.97390        -0.03440
   C        2.08790        -0.06730        -0.62820
   C        3.47700        -0.48290        -1.01400
   H        3.50620        -1.52060        -1.34550
   C        4.45590        -0.34220         0.15420
   O        5.31540        -1.13760         0.39010
   O        4.29980         0.76300         0.89450
   H        3.53620         1.28860         0.60730
   H        3.85710         0.14730        -1.82280
   H        1.53730        -1.99600         0.10820
   H       -0.68680        -1.34570         0.81320
   O       -1.68110         1.23390         0.58040
   C       -2.67270         0.41250         1.11400
   H       -2.28640        -0.34330         1.80810
   C       -3.49220        -0.30060         0.02890
   F       -2.77690        -1.17380        -0.68990
   F       -4.03970         0.55750        -0.83380
   F       -4.49660        -0.99500         0.58780
   H       -3.36430         1.07330         1.64690
   H        0.05170         2.64640        -0.53130
   H        2.29980         1.97120        -1.28150
*
